n = 6;
Min = 1;
Max = 3;
Distancia = [|0, 409, 358, 142, 457, 225,
              |409, 0, 401, 386, 362, 127,
              |358, 401, 0, 482, 429, 486,
              |142, 386, 482, 0, 240, 120,
              |457, 362, 429, 240, 0, 184,
              |225, 127, 486, 120, 184, 0|];